100
30
8
6
17
31
17
8
20
18
16
18
1
7
5
3
2
4
8
3
15
17
27
4
6
22
32
17
3
1
13
9
8
2
31
27
5
1
11
31
16
3
7
18
4
13
20
10
18
1
3
3
17
14
13
17
10
20
1
2
12
3
17
5
15
3
5
16
32
4
30
14
10
14
5
5
2
32
16
20
29
2
22
14
8
31
4
6
21
8
16
10
20
29
8
5
14
17
13
31
27
16